networks/zoo_90_1980/zoo_90_1980-lower.txt
Number of groups: 45
Flow 1: {1 2 0} {2 47 0} 
Flow 2: {1 4 0} {4 3 0} {3 48 0} 
Flow 3: {4 49 0} 
Flow 4: {2 7 0} {7 6 0} {6 5 0} {5 50 0} 
Flow 5: {6 51 0} 
Flow 6: {7 52 0} 
Flow 7: {7 8 0} {8 53 0} 
Flow 8: {6 9 0} {9 54 0} 
Flow 9: {6 10 0} {10 55 0} 
Flow 10: {1 13 0} {13 14 0} {14 11 0} {11 56 0} 
Flow 11: {14 12 0} {12 57 0} 
Flow 12: {13 58 0} 
Flow 13: {14 59 0} 
Flow 14: {3 15 0} {15 60 0} 
Flow 15: {15 16 0} {16 61 0} 
Flow 16: {15 17 0} {17 62 0} 
Flow 17: {3 37 0} {37 36 0} {36 18 0} {18 63 0} 
Flow 18: {11 19 0} {19 64 0} 
Flow 19: {19 20 0} {20 65 0} 
Flow 20: {14 22 0} {22 25 0} {25 21 0} {21 66 0} 
Flow 21: {22 67 0} 
Flow 22: {25 23 0} {23 68 0} 
Flow 23: {21 24 0} {24 69 0} 
Flow 24: {25 70 0} 
Flow 25: {13 27 0} {27 26 0} {26 71 0} 
Flow 26: {27 72 0} 
Flow 27: {2 28 0} {28 73 0} 
Flow 28: {28 35 0} {35 29 0} {29 74 0} 
Flow 29: {5 38 0} {38 30 0} {30 75 0} 
Flow 30: {28 31 0} {31 76 0} 
Flow 31: {27 32 0} {32 77 0} 
Flow 32: {35 33 0} {33 78 0} 
Flow 33: {35 34 0} {34 79 0} 
Flow 34: {35 80 0} 
Flow 35: {36 81 0} 
Flow 36: {37 82 0} 
Flow 37: {38 83 0} 
Flow 38: {5 40 0} {40 39 0} {39 84 0} 
Flow 39: {40 85 0} 
Flow 40: {9 41 0} {41 86 0} 
Flow 41: {37 44 0} {44 42 0} {42 87 0} 
Flow 42: {44 43 0} {43 88 0} 
Flow 43: {44 89 0} 
Flow 44: {36 45 0} {45 90 0} 
Flow 45: {2 1 0} {1 46 0} 
Flow 85: {41 42 0} Flow 89: {3 4 0} {4 1 0} Flow 96: {42 41 0} {41 9 0} Flow 98: {15 14 0} Flow 106: {18 19 0} Flow 108: {18 25 0} Flow 119: {22 32 0} Flow 120: {32 33 0} Flow 121: {32 34 0} Flow 177: {5 6 0} {6 7 0} {7 2 0} Flow 183: {6 8 0} Flow 190: {44 37 0} {37 15 0} {42 44 0} Flow 218: {42 43 0} Flow 220: {44 45 0} Flow 309: {8 7 0} Flow 313: {8 6 0} Flow 353: {9 6 0} Flow 355: {37 3 0} Flow 361: {9 10 0} Flow 397: {10 6 0} Flow 405: {10 9 0} Flow 441: {11 14 0} {14 13 0} {13 1 0} Flow 443: {14 15 0} {15 3 0} Flow 456: {19 18 0} {18 17 0} Flow 460: {20 21 0} Flow 468: {33 35 0} Flow 475: {18 36 0} Flow 476: {15 37 0} Flow 485: {12 14 0} Flow 501: {12 22 0} {25 18 0} Flow 503: {21 20 0} Flow 509: {32 27 0} Flow 511: {35 28 0} Flow 633: {17 18 0} Flow 661: {16 15 0} Flow 677: {16 36 0} Flow 705: {17 15 0} Flow 753: {36 37 0} Flow 759: {19 11 0} Flow 760: {25 22 0} {22 12 0} Flow 764: {36 16 0} Flow 837: {20 19 0} Flow 857: {21 25 0} Flow 858: {21 23 0} Flow 881: {22 14 0} Flow 969: {23 25 0} Flow 979: {23 21 0} Flow 1013: {24 21 0} Flow 1101: {26 27 0} {27 13 0} Flow 1118: {32 22 0} Flow 1189: {28 2 0} Flow 1206: {33 32 0} Flow 1233: {29 35 0} Flow 1262: {29 31 0} Flow 1277: {30 38 0} {38 5 0} Flow 1314: {38 39 0} Flow 1321: {31 28 0} Flow 1349: {31 29 0} Flow 1441: {33 34 0} Flow 1453: {34 32 0} Flow 1454: {34 35 0} Flow 1485: {34 33 0} Flow 1673: {39 38 0} Flow 1711: {39 40 0} Flow 1717: {40 5 0} Flow 1849: {43 44 0} Flow 1850: {43 42 0} Flow 1937: {45 36 0} Flow 1941: {45 44 0} Time taken running everything: 1 seconds
