networks/zoo_90_1980/zoo_90_1980-lower.sol
<?xml version = "1.0" encoding="UTF-8" standalone="yes"?>
<CPLEXSolution version="1.2">
 <header
   problemName="networks/zoo_90_1980/zoo_90_1980-lower.lp"
   solutionName="incumbent"
   solutionIndex="-1"
   objectiveValue="45"
   solutionTypeValue="3"
   solutionTypeString="primal"
   solutionStatusValue="101"
   solutionStatusString="integer optimal solution"
   solutionMethodString="mip"
   primalFeasible="1"
   dualFeasible="1"
   MIPNodes="0"
   MIPIterations="0"
   writeLevel="3"/>
 <quality
   epInt="1.0000000000000001e-05"
   epRHS="9.9999999999999995e-07"
   maxIntInfeas="0"
   maxPrimalInfeas="0"
   maxX="1"
   maxSlack="1"/>
 <variables>
  <variable name="Y(1,2)" index="1" value="1"/>
  <variable name="Y(2,3)" index="92" value="1"/>
  <variable name="Y(3,4)" index="183" value="1"/>
  <variable name="Y(4,5)" index="274" value="1"/>
  <variable name="Y(5,6)" index="365" value="1"/>
  <variable name="Y(6,7)" index="456" value="1"/>
  <variable name="Y(7,8)" index="547" value="1"/>
  <variable name="Y(8,9)" index="638" value="1"/>
  <variable name="Y(9,10)" index="729" value="1"/>
  <variable name="Y(10,11)" index="820" value="1"/>
  <variable name="Y(11,12)" index="911" value="1"/>
  <variable name="Y(12,13)" index="1002" value="1"/>
  <variable name="Y(13,14)" index="1093" value="1"/>
  <variable name="Y(14,15)" index="1184" value="1"/>
  <variable name="Y(15,16)" index="1275" value="1"/>
  <variable name="Y(16,17)" index="1366" value="1"/>
  <variable name="Y(17,18)" index="1457" value="1"/>
  <variable name="Y(18,19)" index="1548" value="1"/>
  <variable name="Y(19,20)" index="1639" value="1"/>
  <variable name="Y(20,21)" index="1730" value="1"/>
  <variable name="Y(21,22)" index="1821" value="1"/>
  <variable name="Y(22,23)" index="1912" value="1"/>
  <variable name="Y(23,24)" index="2003" value="1"/>
  <variable name="Y(24,25)" index="2094" value="1"/>
  <variable name="Y(25,26)" index="2185" value="1"/>
  <variable name="Y(26,27)" index="2276" value="1"/>
  <variable name="Y(27,28)" index="2367" value="1"/>
  <variable name="Y(28,29)" index="2458" value="1"/>
  <variable name="Y(29,30)" index="2549" value="1"/>
  <variable name="Y(30,31)" index="2640" value="1"/>
  <variable name="Y(31,32)" index="2731" value="1"/>
  <variable name="Y(32,33)" index="2822" value="1"/>
  <variable name="Y(33,34)" index="2913" value="1"/>
  <variable name="Y(34,35)" index="3004" value="1"/>
  <variable name="Y(35,36)" index="3095" value="1"/>
  <variable name="Y(36,37)" index="3186" value="1"/>
  <variable name="Y(37,38)" index="3277" value="1"/>
  <variable name="Y(38,39)" index="3368" value="1"/>
  <variable name="Y(39,40)" index="3459" value="1"/>
  <variable name="Y(40,41)" index="3550" value="1"/>
  <variable name="Y(41,42)" index="3641" value="1"/>
  <variable name="Y(42,43)" index="3732" value="1"/>
  <variable name="Y(43,44)" index="3823" value="1"/>
  <variable name="Y(44,45)" index="3914" value="1"/>
  <variable name="Y(45,1)" index="3960" value="1"/>
  <variable name="X(1,2,1)" index="178200" value="1"/>
  <variable name="X(1,4,2)" index="180181" value="1"/>
  <variable name="X(1,13,10)" index="182169" value="1"/>
  <variable name="X(1,46,45)" index="184184" value="1"/>
  <variable name="X(2,1,45)" index="186164" value="1"/>
  <variable name="X(2,7,4)" index="188103" value="1"/>
  <variable name="X(2,28,27)" index="190106" value="1"/>
  <variable name="X(2,47,1)" index="192060" value="1"/>
  <variable name="X(3,4,89)" index="194128" value="1"/>
  <variable name="X(3,15,14)" index="196033" value="1"/>
  <variable name="X(3,37,17)" index="198016" value="1"/>
  <variable name="X(3,48,2)" index="199981" value="1"/>
  <variable name="X(4,1,89)" index="202048" value="1"/>
  <variable name="X(4,3,2)" index="203941" value="1"/>
  <variable name="X(4,49,3)" index="205922" value="1"/>
  <variable name="X(5,6,177)" index="208076" value="1"/>
  <variable name="X(5,38,29)" index="209908" value="1"/>
  <variable name="X(5,40,38)" index="211897" value="1"/>
  <variable name="X(5,50,4)" index="213843" value="1"/>
  <variable name="X(6,5,4)" index="215823" value="1"/>
  <variable name="X(6,7,177)" index="217976" value="1"/>
  <variable name="X(6,8,183)" index="219962" value="1"/>
  <variable name="X(6,9,8)" index="221767" value="1"/>
  <variable name="X(6,10,9)" index="223748" value="1"/>
  <variable name="X(6,51,5)" index="225724" value="1"/>
  <variable name="X(7,2,177)" index="227876" value="1"/>
  <variable name="X(7,6,4)" index="229683" value="1"/>
  <variable name="X(7,8,7)" index="231666" value="1"/>
  <variable name="X(7,52,6)" index="233645" value="1"/>
  <variable name="X(8,6,313)" index="235932" value="1"/>
  <variable name="X(8,7,309)" index="237908" value="1"/>
  <variable name="X(8,53,7)" index="239586" value="1"/>
  <variable name="X(9,6,353)" index="241912" value="1"/>
  <variable name="X(9,10,361)" index="243900" value="1"/>
  <variable name="X(9,41,40)" index="245559" value="1"/>
  <variable name="X(9,54,8)" index="247507" value="1"/>
  <variable name="X(10,6,397)" index="249876" value="1"/>
  <variable name="X(10,9,405)" index="251864" value="1"/>
  <variable name="X(10,55,9)" index="253448" value="1"/>
  <variable name="X(11,14,441)" index="255860" value="1"/>
  <variable name="X(11,19,18)" index="257417" value="1"/>
  <variable name="X(11,56,10)" index="259389" value="1"/>
  <variable name="X(12,14,485)" index="261844" value="1"/>
  <variable name="X(12,22,501)" index="263840" value="1"/>
  <variable name="X(12,57,11)" index="265330" value="1"/>
  <variable name="X(13,1,441)" index="267740" value="1"/>
  <variable name="X(13,14,10)" index="269289" value="1"/>
  <variable name="X(13,27,25)" index="271284" value="1"/>
  <variable name="X(13,58,12)" index="273251" value="1"/>
  <variable name="X(14,11,10)" index="275229" value="1"/>
  <variable name="X(14,12,11)" index="277210" value="1"/>
  <variable name="X(14,13,441)" index="279620" value="1"/>
  <variable name="X(14,15,443)" index="281602" value="1"/>
  <variable name="X(14,22,20)" index="283159" value="1"/>
  <variable name="X(14,59,13)" index="285132" value="1"/>
  <variable name="X(15,3,443)" index="287542" value="1"/>
  <variable name="X(15,14,98)" index="289177" value="1"/>
  <variable name="X(15,16,15)" index="291074" value="1"/>
  <variable name="X(15,17,16)" index="293055" value="1"/>
  <variable name="X(15,37,476)" index="295495" value="1"/>
  <variable name="X(15,60,14)" index="297013" value="1"/>
  <variable name="X(16,15,661)" index="299640" value="1"/>
  <variable name="X(16,36,677)" index="301636" value="1"/>
  <variable name="X(16,61,15)" index="302954" value="1"/>
  <variable name="X(17,15,705)" index="305624" value="1"/>
  <variable name="X(17,18,633)" index="307532" value="1"/>
  <variable name="X(17,62,16)" index="308895" value="1"/>
  <variable name="X(18,17,456)" index="311315" value="1"/>
  <variable name="X(18,19,106)" index="312945" value="1"/>
  <variable name="X(18,25,108)" index="314927" value="1"/>
  <variable name="X(18,36,475)" index="317274" value="1"/>
  <variable name="X(18,63,17)" index="318796" value="1"/>
  <variable name="X(19,11,759)" index="321518" value="1"/>
  <variable name="X(19,18,456)" index="323195" value="1"/>
  <variable name="X(19,20,19)" index="324738" value="1"/>
  <variable name="X(19,64,18)" index="326717" value="1"/>
  <variable name="X(20,19,837)" index="329516" value="1"/>
  <variable name="X(20,21,460)" index="331119" value="1"/>
  <variable name="X(20,65,19)" index="332658" value="1"/>
  <variable name="X(21,20,503)" index="335122" value="1"/>
  <variable name="X(21,23,858)" index="337457" value="1"/>
  <variable name="X(21,24,23)" index="338602" value="1"/>
  <variable name="X(21,25,857)" index="341416" value="1"/>
  <variable name="X(21,66,20)" index="342559" value="1"/>
  <variable name="X(22,12,760)" index="345279" value="1"/>
  <variable name="X(22,14,881)" index="347380" value="1"/>
  <variable name="X(22,25,20)" index="348499" value="1"/>
  <variable name="X(22,32,119)" index="350578" value="1"/>
  <variable name="X(22,67,21)" index="352460" value="1"/>
  <variable name="X(23,21,979)" index="355398" value="1"/>
  <variable name="X(23,25,969)" index="357368" value="1"/>
  <variable name="X(23,68,22)" index="358401" value="1"/>
  <variable name="X(24,21,1013)" index="361372" value="1"/>
  <variable name="X(24,69,23)" index="362362" value="1"/>
  <variable name="X(25,18,501)" index="364820" value="1"/>
  <variable name="X(25,21,20)" index="366319" value="1"/>
  <variable name="X(25,22,760)" index="369039" value="1"/>
  <variable name="X(25,23,22)" index="370281" value="1"/>
  <variable name="X(25,70,24)" index="372263" value="1"/>
  <variable name="X(26,27,1101)" index="375320" value="1"/>
  <variable name="X(26,71,25)" index="376224" value="1"/>
  <variable name="X(27,13,1101)" index="379280" value="1"/>
  <variable name="X(27,26,25)" index="380184" value="1"/>
  <variable name="X(27,32,31)" index="382170" value="1"/>
  <variable name="X(27,72,26)" index="384145" value="1"/>
  <variable name="X(28,2,1189)" index="387288" value="1"/>
  <variable name="X(28,31,30)" index="388109" value="1"/>
  <variable name="X(28,35,28)" index="390087" value="1"/>
  <variable name="X(28,73,27)" index="392066" value="1"/>
  <variable name="X(29,31,1262)" index="395281" value="1"/>
  <variable name="X(29,35,1233)" index="397232" value="1"/>
  <variable name="X(29,74,28)" index="398007" value="1"/>
  <variable name="X(30,38,1277)" index="401236" value="1"/>
  <variable name="X(30,75,29)" index="401968" value="1"/>
  <variable name="X(31,28,1321)" index="405240" value="1"/>
  <variable name="X(31,29,1349)" index="407248" value="1"/>
  <variable name="X(31,76,30)" index="407909" value="1"/>
  <variable name="X(32,22,1118)" index="410977" value="1"/>
  <variable name="X(32,27,509)" index="412348" value="1"/>
  <variable name="X(32,33,120)" index="413939" value="1"/>
  <variable name="X(32,34,121)" index="415920" value="1"/>
  <variable name="X(32,77,31)" index="417810" value="1"/>
  <variable name="X(33,32,1206)" index="420965" value="1"/>
  <variable name="X(33,34,1441)" index="423180" value="1"/>
  <variable name="X(33,35,468)" index="424187" value="1"/>
  <variable name="X(33,78,32)" index="425731" value="1"/>
  <variable name="X(34,32,1453)" index="429132" value="1"/>
  <variable name="X(34,33,1485)" index="431144" value="1"/>
  <variable name="X(34,35,1454)" index="433093" value="1"/>
  <variable name="X(34,79,33)" index="433652" value="1"/>
  <variable name="X(35,28,511)" index="436110" value="1"/>
  <variable name="X(35,29,28)" index="437607" value="1"/>
  <variable name="X(35,33,32)" index="439591" value="1"/>
  <variable name="X(35,34,33)" index="441572" value="1"/>
  <variable name="X(35,80,34)" index="443553" value="1"/>
  <variable name="X(36,16,764)" index="446263" value="1"/>
  <variable name="X(36,18,17)" index="447496" value="1"/>
  <variable name="X(36,37,753)" index="450212" value="1"/>
  <variable name="X(36,45,44)" index="451483" value="1"/>
  <variable name="X(36,81,35)" index="453454" value="1"/>
  <variable name="X(37,3,355)" index="455754" value="1"/>
  <variable name="X(37,15,190)" index="457569" value="1"/>
  <variable name="X(37,36,17)" index="459376" value="1"/>
  <variable name="X(37,44,41)" index="461380" value="1"/>
  <variable name="X(37,82,36)" index="463355" value="1"/>
  <variable name="X(38,5,1277)" index="466576" value="1"/>
  <variable name="X(38,30,29)" index="467308" value="1"/>
  <variable name="X(38,39,1314)" index="470573" value="1"/>
  <variable name="X(38,83,37)" index="471276" value="1"/>
  <variable name="X(39,38,1673)" index="474892" value="1"/>
  <variable name="X(39,40,1711)" index="476910" value="1"/>
  <variable name="X(39,84,38)" index="477217" value="1"/>
  <variable name="X(40,5,1717)" index="480876" value="1"/>
  <variable name="X(40,39,38)" index="481177" value="1"/>
  <variable name="X(40,85,39)" index="483158" value="1"/>
  <variable name="X(41,9,96)" index="485195" value="1"/>
  <variable name="X(41,42,85)" index="487164" value="1"/>
  <variable name="X(41,86,40)" index="489099" value="1"/>
  <variable name="X(42,41,96)" index="491135" value="1"/>
  <variable name="X(42,43,218)" index="493237" value="1"/>
  <variable name="X(42,44,190)" index="495189" value="1"/>
  <variable name="X(42,87,41)" index="497020" value="1"/>
  <variable name="X(43,42,1850)" index="500809" value="1"/>
  <variable name="X(43,44,1849)" index="502788" value="1"/>
  <variable name="X(43,88,42)" index="502961" value="1"/>
  <variable name="X(44,37,190)" index="505089" value="1"/>
  <variable name="X(44,42,41)" index="506920" value="1"/>
  <variable name="X(44,43,42)" index="508901" value="1"/>
  <variable name="X(44,45,220)" index="511059" value="1"/>
  <variable name="X(44,89,43)" index="512862" value="1"/>
  <variable name="X(45,36,1937)" index="516736" value="1"/>
  <variable name="X(45,44,1941)" index="518720" value="1"/>
  <variable name="X(45,90,44)" index="518803" value="1"/>
 </variables>
</CPLEXSolution>
